==> SBEFFORT             = 4
==> MAXTIME              = 3600
==> OUTPUTLOG            = 1
FICO Xpress v8.5.9, solve started 23:48:23, Jun 8, 2019
Maximizing MILP Seating model
Original problem has:
       230 rows          300 cols         7440 elements       300 globals
Presolved problem has:
       103 rows          204 cols         2431 elements       198 globals
LP relaxation tightened
Will try to keep branch and bound tree memory usage below 7.2GB
 *** Heuristic solution found:    22.000000      Time: 0 ***
Starting concurrent solve with dual

 Concurrent-Solve,   0s
            Dual        
    objective   dual inf
 D  102.00000   .0000000
------- optimal --------
Concurrent statistics:
      Dual: 34 simplex iterations, 0.00s
Optimal solution found
 
   Its         Obj Value      S   Ninf  Nneg   Sum Dual Inf  Time
    34        102.000000      D      0     0        .000000     0
Dual solved problem
  34 simplex iterations in 0s

Final objective                         : 1.020000000000000e+02
  Max primal violation      (abs / rel) : 1.110e-16 / 9.869e-17
  Max dual violation        (abs / rel) :       0.0 /       0.0
  Max complementarity viol. (abs / rel) :       0.0 /       0.0
All values within tolerances

Starting root cutting & heuristics
 
 Its Type    BestSoln    BestBound   Sols    Add    Del     Gap     GInf   Time
   1  K     22.000000   102.000000      1     99      0   78.43%      29      0
   2  K     22.000000   102.000000      1    111     81   78.43%      43      0
   3  K     22.000000   102.000000      1     92    101   78.43%      48      0
b           28.000000   102.000000      2                 72.55%       0      0
   4  K     28.000000   102.000000      2     87     94   72.55%      35      0
   5  K     28.000000   102.000000      2    100     83   72.55%      49      0
   6  K     28.000000   102.000000      2     93     97   72.55%      47      0
   7  K     28.000000   102.000000      2     89     88   72.55%      58      0
b           35.000000   102.000000      3                 65.69%       0      0
   8  K     35.000000   102.000000      3     81     91   65.69%      37      0
   9  K     35.000000   102.000000      3     95     87   65.69%      48      0
  10  K     35.000000   102.000000      3     97     89   65.69%      58      0
  11  K     35.000000   102.000000      3     83     86   65.69%      67      0
  12  K     35.000000   102.000000      3     93     82   65.69%      72      0
  13  K     35.000000   102.000000      3     87     85   65.69%      76      0
  14  K     35.000000   102.000000      3      2     83   65.69%      39      0
  15  K     35.000000   102.000000      3      1      7   65.69%      39      0
  16  K     35.000000   102.000000      3      1     13   65.69%      39      0
  17  K     35.000000   102.000000      3     96      8   65.69%      58      0
  18  K     35.000000   102.000000      3      2     91   65.69%      39      0
b           47.000000   102.000000      4                 53.92%       0      0
  19  K     47.000000   102.000000      4     93     14   53.92%      52      0
  20  K     47.000000   102.000000      4     99    150   53.92%      59      0
  21  G     47.000000   102.000000      4     39     31   53.92%      41      0
  22  G     47.000000   102.000000      4     70    110   53.92%      55      0
Heuristic search started
Heuristic search stopped
 
Cuts in the matrix         : 39
Cut elements in the matrix : 1106
 
Starting tree search.
Deterministic mode with up to 4 running threads and up to 8 tasks.
 
    Node     BestSoln    BestBound   Sols Active  Depth     Gap     GInf   Time
       1    47.000000   102.000000      4      2      1   53.92%      45      0
       2    47.000000   102.000000      4      2      3   53.92%      39      0
       3    47.000000   102.000000      4      2      4   53.92%      35      0
       4    47.000000   102.000000      4      2      5   53.92%      25      0
       5    47.000000   102.000000      4      5      3   53.92%      50      0
       6    47.000000   102.000000      4      5      4   53.92%      32      0
       7    47.000000   102.000000      4      5      5   53.92%      48      0
       8    47.000000   102.000000      4      5      6   53.92%      32      0
       9    47.000000   102.000000      4      8      4   53.92%      37      0
      10    47.000000   102.000000      4      8      7   53.92%      35      0
      21    47.000000   102.000000      4     16      7   53.92%      56      0
      40    47.000000   102.000000      4     16     16   53.92%      30      0
      55    47.000000   102.000000      4     16     21   53.92%      26      0
      65    47.000000   102.000000      4     26     14   53.92%      50      0
      94    47.000000   102.000000      4     26     24   53.92%      20      1
a    107    51.000000   102.000000      5     26     32   50.00%       0      1
     108    51.000000   102.000000      5     26     32   50.00%       1      1
     216    51.000000   102.000000      5     46     16   50.00%      38      1
     319    51.000000   102.000000      5     65     28   50.00%      20      1
B&B tree size: 1.4MB total
 
    Node     BestSoln    BestBound   Sols Active  Depth     Gap     GInf   Time
a    412    52.000000   102.000000      6     65     14   49.02%       0      1
     444    52.000000   102.000000      6     65     30   49.02%      30      1
     545    52.000000   102.000000      6    102     16   49.02%      44      1
     648    52.000000   102.000000      6    179     23   49.02%      24      1
     751    52.000000   102.000000      6    179     26   49.02%       6      1
     854    52.000000   100.791447      6    256     10   48.41%      47      1
     958    52.000000   100.791447      6    256     16   48.41%      41      1
    1066    52.000000   100.791447      6    256     22   48.41%      30      1
    1178    52.000000   100.791447      6    256     26   48.41%      17      2
    1278    52.000000   100.791447      6    277     23   48.41%      18      2
    1382    52.000000   100.791447      6    321     16   48.41%      51      2
    1498    52.000000   100.791447      6    321     22   48.41%      28      2
    1611    52.000000   100.791447      6    321     25   48.41%      26      2
    1723    52.000000   100.791447      6    374     21   48.41%      34      2
    1828    52.000000   100.791447      6    374     12   48.41%      47      2
    1939    52.000000   100.791447      6    374     21   48.41%      42      2
    2043    52.000000   100.791447      6    374     26   48.41%      30      2
    2146    52.000000   100.791447      6    432     28   48.41%      12      2
    2255    52.000000   100.791447      6    432     14   48.41%      36      2
    2362    52.000000   100.791447      6    432     18   48.41%      33      2
B&B tree size: 5.6MB total
 
    Node     BestSoln    BestBound   Sols Active  Depth     Gap     GInf   Time
    2472    52.000000   100.791447      6    516     14   48.41%      44      3
    2575    52.000000   100.791447      6    516     25   48.41%      29      3
    2678    52.000000   100.791447      6    598     23   48.41%      30      3
    2786    52.000000   100.267555      6    692     21   48.14%      35      3
    2889    52.000000   100.267555      6    692     18   48.14%      27      3
    3002    52.000000   100.267555      6    692     20   48.14%      35      3
    3112    52.000000   100.267555      6    692     22   48.14%      34      3
    3228    52.000000   100.267555      6    692     25   48.14%      20      3
    3335    52.000000    96.927723      6    879     16   46.35%      40      3
    3459    52.000000    96.927723      6    879     26   46.35%      26      3
a   3558    56.000000    96.927723      7    951     28   42.22%       0      3
    3565    56.000000    96.927723      7    951     28   42.22%       3      3
    3670    56.000000    96.927723      7    951     19   42.22%      37      3
    3770    56.000000    96.927723      7    951     24   42.22%      17      3
R   3821    58.000000    96.927723      8    951      7   40.16%       0      3
R   3821    60.000000    96.927723      9    951      7   38.10%       0      3
    3874    60.000000    96.927723      9    951     17   38.10%      44      4
    4161    60.000000    95.639062      9    828      1   37.26%       1      4
    4262    60.000000    95.639062      9    864     22   37.26%      41      4
    4371    60.000000    95.639062      9    864     30   37.26%      25      4
B&B tree size: 8.3MB total
 
    Node     BestSoln    BestBound   Sols Active  Depth     Gap     GInf   Time
    4472    60.000000    95.639062      9    864     16   37.26%      47      4
    4576    60.000000    95.639062      9    864     17   37.26%      33      4
    4691    60.000000    95.639062      9    864     25   37.26%      32      4
    4801    60.000000    95.639062      9    864     21   37.26%      47      4
    4912    60.000000    95.639062      9    864     20   37.26%      22      4
    5016    60.000000    95.639062      9    864     22   37.26%      19      4
    5123    60.000000    95.639062      9    864     32   37.26%      16      4
    5232    60.000000    95.639062      9    896     22   37.26%      38      4
    5350    60.000000    95.639062      9    963     22   37.26%      37      4
    5450    60.000000    95.639062      9   1113     17   37.26%      27      4
    5557    60.000000    93.679507      9   1268     16   35.95%      49      5
    5666    60.000000    93.679507      9   1268     18   35.95%      36      5
    5770    60.000000    93.679507      9   1268     16   35.95%      38      5
    5872    60.000000    93.679507      9   1268     20   35.95%      14      5
    5983    60.000000    93.679507      9   1314     18   35.95%      41      5
    6095    60.000000    93.679507      9   1314     24   35.95%      19      5
    6200    60.000000    93.679507      9   1314     18   35.95%      51      5
    6323    60.000000    91.015482      9   1378     21   34.08%      46      5
    6427    60.000000    91.015482      9   1378     23   34.08%      36      5
    6540    60.000000    91.015482      9   1378     12   34.08%      27      5
B&B tree size: 11MB total
 
    Node     BestSoln    BestBound   Sols Active  Depth     Gap     GInf   Time
    6642    60.000000    91.015482      9   1378     29   34.08%      10      5
    6760    60.000000    91.015482      9   1378     22   34.08%      38      5
    6866    60.000000    89.965307      9   1417     17   33.31%      37      6
    6975    60.000000    89.965307      9   1456     21   33.31%      37      6
    7082    60.000000    89.965307      9   1456     21   33.31%      23      6
    7184    60.000000    89.965307      9   1456     21   33.31%      36      6
    7284    60.000000    89.965307      9   1505      1   33.31%       1      6
    7387    60.000000    89.965307      9   1546     12   33.31%      36      6
    7492    60.000000    89.965307      9   1546     16   33.31%      34      6
    7613    60.000000    89.965307      9   1572     23   33.31%      26      6
    7733    60.000000    88.655143      9   1622     22   32.32%      19      6
    7845    60.000000    88.655143      9   1622     29   32.32%       6      6
    7952    60.000000    88.655143      9   1650     15   32.32%      26      6
    8061    60.000000    87.095433      9   1747     16   31.11%      49      6
    8161    60.000000    87.095433      9   1747     14   31.11%      30      7
    8263    60.000000    87.095433      9   1747     23   31.11%      32      7
    8369    60.000000    87.095433      9   1747     32   31.11%      16      7
    8479    60.000000    87.095433      9   1770     16   31.11%      37      7
    8582    60.000000    87.095433      9   1770     20   31.11%      28      7
    8694    60.000000    87.095433      9   1825     19   31.11%      44      7
B&B tree size: 15MB total
 
    Node     BestSoln    BestBound   Sols Active  Depth     Gap     GInf   Time
    8797    60.000000    87.095433      9   1854     21   31.11%      13      7
    8897    60.000000    87.095433      9   1854     21   31.11%      44      7
    9006    60.000000    87.095433      9   1854     16   31.11%      56      7
    9107    60.000000    87.095433      9   1854     16   31.11%      15      7
    9217    60.000000    87.095433      9   1908     17   31.11%      38      7
    9332    60.000000    87.095433      9   1908     17   31.11%      47      7
    9437    60.000000    86.085335      9   1936     21   30.30%      21      7
    9547    60.000000    86.085335      9   1936     24   30.30%      45      7
    9653    60.000000    86.085335      9   1936     26   30.30%      19      7
    9753    60.000000    86.085335      9   1936     16   30.30%      39      8
    9857    60.000000    86.085335      9   1936     14   30.30%      36      8
    9968    60.000000    86.085335      9   1936     18   30.30%      54      8
   10079    60.000000    86.085335      9   1936     16   30.30%      45      8
   11092    60.000000    84.462628      9   2136     22   28.96%      40      9
   12106    60.000000    84.158804      9   2238     18   28.71%      20      9
   13110    60.000000    83.689304      9   2295     13   28.31%      39     10
   14119    60.000000    82.039034      9   2416     22   26.86%      31     11
   15125    60.000000    82.000000      9   2534     19   26.83%      44     12
   16131    60.000000    82.000000      9   2589     18   26.83%      28     12
   17140    60.000000    80.976715      9   2693     19   25.90%      27     13
B&B tree size: 25MB total
 
    Node     BestSoln    BestBound   Sols Active  Depth     Gap     GInf   Time
   18142    60.000000    79.693920      9   2741     19   24.71%      24     14
   19147    60.000000    79.520438      9   2779     19   24.55%      31     14
   20154    60.000000    78.539580      9   2831     18   23.61%      36     15
   21173    60.000000    78.140423      9   2830     27   23.22%      24     16
   22183    60.000000    77.030305      9   2841     26   22.11%      21     17
   23194    60.000000    77.030305      9   2837      9   22.11%      27     17
   24207    60.000000    77.000000      9   2846     16   22.08%      14     18
   25212    60.000000    75.602799      9   2819     19   20.64%      18     18
   26231    60.000000    75.024853      9   2783     22   20.03%      34     19
   27233    60.000000    74.975245      9   2765     21   19.97%      11     20
   28241    60.000000    74.242178      9   2718     27   19.18%      33     20
   29251    60.000000    74.000000      9   2692     27   18.92%      15     21
   30261    60.000000    73.093330      9   2591     20   17.91%      20     21
   31270    60.000000    73.000000      9   2538     18   17.81%      20     22
   32275    60.000000    72.824603      9   2476     16   17.61%      23     22
   33275    60.000000    72.001393      9   2363     20   16.67%      29     23
   34276    60.000000    72.000000      9   2297     16   16.67%      19     24
   35278    60.000000    71.015505      9   2187     18   15.51%      37     24
   36280    60.000000    70.185560      9   2055     24   14.51%      30     25
   37302    60.000000    70.006156      9   1902     27   14.29%       5     25
B&B tree size: 27MB total
 
    Node     BestSoln    BestBound   Sols Active  Depth     Gap     GInf   Time
   38306    60.000000    69.000000      9   1791     20   13.04%      44     26
   39310    60.000000    68.000000      9   1574     17   11.76%      46     26
   40318    60.000000    68.000000      9   1356     17   11.76%      41     27
   41318    60.000000    67.000000      9   1120     13   10.45%      30     27
   42319    60.000000    64.371693      9    640     16    6.79%      17     28
   43319    60.000000    62.000000      9    135     19    3.23%      25     28
 *** Search completed ***     Time:    28 Nodes:      43637
Number of integer feasible solutions found is 9
Best integer solution found is    60.000000
Best bound is    60.000000
Uncrunching matrix
